p cnf 7230 16
-329 -3044 -3360 0
-327 -3042 -3358 0
-325 -3018 -3356 0
-323 -3016 -3354 0
329 -3361 0
327 -3359 0
325 -3357 0
323 -3355 0
3360 3361 0
3358 3359 0
3356 3357 0
3354 3355 0
3044 -3361 0
3042 -3359 0
3018 -3357 0
3016 -3355 0
